c generated by the ./src/complete generator
c n = 10
c average parallel = 2
c max/min cost = 10/5
c max/min capacity = 10/5
c average deficit = 3
c total deficit = 10
c seed = 12345
p min 10 106
a	1	2	0	8	6
a	1	3	0	9	6
a	3	1	0	8	5
a	1	3	0	9	5
a	4	1	0	6	6
a	1	5	0	6	8
a	1	5	0	5	8
a	1	5	0	9	6
a	6	1	0	5	8
a	6	1	0	5	7
a	1	7	0	9	7
a	7	1	0	6	5
a	1	7	0	5	7
a	1	7	0	5	6
a	1	8	0	7	7
a	9	1	0	5	8
a	1	9	0	9	5
a	10	1	0	8	7
a	2	3	0	8	8
a	3	2	0	6	9
a	3	2	0	7	7
a	3	2	0	5	7
a	4	2	0	8	5
a	2	4	0	6	6
a	4	2	0	6	5
a	4	2	0	5	7
a	5	2	0	8	5
a	2	5	0	8	5
a	2	5	0	9	9
a	6	2	0	6	5
a	6	2	0	7	9
a	2	7	0	7	8
a	7	2	0	8	5
a	2	7	0	7	7
a	2	8	0	9	8
a	2	9	0	8	9
a	9	2	0	9	7
a	2	10	0	6	6
a	10	2	0	7	7
a	4	3	0	8	8
a	4	3	0	9	6
a	4	3	0	7	5
a	3	5	0	8	7
a	5	3	0	9	9
a	6	3	0	9	8
a	6	3	0	7	5
a	7	3	0	7	9
a	3	7	0	6	8
a	3	7	0	8	9
a	3	7	0	8	7
a	8	3	0	9	9
a	3	8	0	9	7
a	9	3	0	5	5
a	9	3	0	6	5
a	9	3	0	7	7
a	3	9	0	6	8
a	10	3	0	9	9
a	4	5	0	9	5
a	4	5	0	6	7
a	5	4	0	6	8
a	6	4	0	5	9
a	4	6	0	9	6
a	6	4	0	6	7
a	4	6	0	9	8
a	4	7	0	8	8
a	4	8	0	5	8
a	9	4	0	5	9
a	4	9	0	8	9
a	4	9	0	8	6
a	4	10	0	9	6
a	4	10	0	6	9
a	6	5	0	5	6
a	5	6	0	6	9
a	5	7	0	8	7
a	7	5	0	8	6
a	5	8	0	8	7
a	8	5	0	6	7
a	5	8	0	7	7
a	9	5	0	9	8
a	9	5	0	7	5
a	9	5	0	5	5
a	5	9	0	7	5
a	5	10	0	7	9
a	7	6	0	8	8
a	6	8	0	8	6
a	9	6	0	6	5
a	6	9	0	7	9
a	10	6	0	6	7
a	10	6	0	9	6
a	8	7	0	7	9
a	8	7	0	6	7
a	8	7	0	8	5
a	8	7	0	6	6
a	7	9	0	5	5
a	7	9	0	5	5
a	7	9	0	9	6
a	9	7	0	8	6
a	7	10	0	6	6
a	10	7	0	5	8
a	7	10	0	8	6
a	9	8	0	8	8
a	8	9	0	8	6
a	8	9	0	8	6
a	9	8	0	5	6
a	10	8	0	8	7
a	10	9	0	6	6
n	1	-3
n	2	-1
n	3	3
n	7	-1
n	9	2
